CMPL model generation - running

CMPL version: 1.11.0
Authors: Thomas Schleiff, Mike Steglich
Distributed under the GPLv3 

create model instance ...
write model instance ...
CMPL model generation - finished

Solver - running


Welcome to IBM(R) ILOG(R) CPLEX(R) Interactive Optimizer 12.7.1.0
  with Simplex, Mixed Integer & Barrier Optimizers
5725-A06 5725-A29 5724-Y48 5724-Y49 5724-Y54 5724-Y55 5655-Y21
Copyright IBM Corp. 1988, 2017.  All Rights Reserved.

Type 'help' for a list of available commands.
Type 'help' followed by a command name for more
information on commands.

CPLEX> Specified objective sense: MINIMIZE
Selected objective  name:  line[1]
Selected RHS        name:  RHS
Selected bound      name:  BOUND
Problem '/tmp/cmpl.T23667.mps' read.
Read time = 0.06 sec. (10.11 ticks)
CPLEX> CPXPARAM_Read_APIEncoding                        "UTF-8"
Tried aggregator 3 times.
MIP Presolve eliminated 24075 rows and 37718 columns.
MIP Presolve modified 425 coefficients.
Aggregator did 710 substitutions.
Reduced MIP has 3137 rows, 4027 columns, and 11929 nonzeros.
Reduced MIP has 3817 binaries, 0 generals, 0 SOSs, and 0 indicators.
Presolve time = 0.06 sec. (51.78 ticks)
Found incumbent of value 931.320001 after 0.12 sec. (119.86 ticks)
Probing fixed 8 vars, tightened 0 bounds.
Probing time = 0.01 sec. (5.14 ticks)
Tried aggregator 1 time.
MIP Presolve eliminated 0 rows and 8 columns.
MIP Presolve modified 37 coefficients.
Reduced MIP has 3137 rows, 4019 columns, and 11913 nonzeros.
Reduced MIP has 4019 binaries, 0 generals, 0 SOSs, and 0 indicators.
Presolve time = 0.01 sec. (10.13 ticks)
Probing time = 0.01 sec. (2.83 ticks)
Clique table members: 7236.
MIP emphasis: balance optimality and feasibility.
MIP search method: dynamic search.
Parallel mode: none, using 1 thread.
Root relaxation solution time = 0.01 sec. (5.53 ticks)

        Nodes                                         Cuts/
   Node  Left     Objective  IInf  Best Integer    Best Bound    ItCnt     Gap

*     0+    0                          931.3200      -25.5657           102.75%
      0     0       71.0571    13      931.3200       71.0571      116   92.37%
*     0+    0                           90.8800       71.0571            21.81%
*     0+    0                           71.3543       71.0571             0.42%
*     0     0      integral     0       71.3086      Cuts: 16      121    0.00%
      0     0        cutoff             71.3086       71.3086      121    0.00%
Elapsed time = 0.20 sec. (169.46 ticks, tree = 0.01 MB, solutions = 4)

Clique cuts applied:  4
Cover cuts applied:  8
Gomory fractional cuts applied:  4

Root node processing (before b&c):
  Real time             =    0.20 sec. (171.51 ticks)
Sequential b&c:
  Real time             =    0.00 sec. (0.00 ticks)
                          ------------
Total (root+branch&cut) =    0.20 sec. (171.51 ticks)

Solution pool: 4 solutions saved.

MIP - Integer optimal solution:  Objective =  7.1308576000e+01
Solution time =    0.20 sec.  Iterations = 121  Nodes = 0
Deterministic time = 171.63 ticks  (851.14 ticks/sec)

CPLEX> Incumbent solution written to file '/tmp/cmpl.T23667.gsol'.
CPLEX> 
CMPL: Time used for model generation: 1 seconds
CMPL: Time used for solving the model: 1 seconds


Solution written to ASCII file: results/output_generated_conf_0.2/2015-11-02-5/fair-nonlinear.sol

Solver - finished
